1184,485
947,448
755,634
487,547
660,427
563,388
559,166
663,349
681,346
561,36
539,360
563,388
694,380
787,460
1166,249
663,349
468,298
616,-8
810,7
639,364
694,380
947,448
804,575
765,939
847,919
765,939
681,886
